Puzzles/sudoku_4x4_05.txt
SIZE 4
PUZZLE
0 3 0 2
0 0 0 0
0 0 0 0
1 0 4 0
